 C  O  N  H                             
   1.00000000000000     
    10.9474524881139583    0.1314610745566390   -0.2412770889555122
     3.8892010995929098   11.0976560828358650    0.0306371287718454
     1.2358377593657248    1.2551503965372686    8.4331555777405569
   C    O    N    H 
    16    32    32    20
Direct
  0.1019632386465747  0.9058845132144019  0.5508236781373630
  0.0612192752316888  0.7044931458869419  0.5359743112565084
  0.8460597755289275  0.8528785480865129  0.4383634595318094
  0.8902335887083557  0.0551206450704977  0.4397621646178819
  0.6874058237613788  0.4545483292935616  0.2021285314079852
  0.7377052344866666  0.4758445764093542  0.0227693188755162
  0.4788202725288807  0.6170723861833335  0.1411379363249571
  0.5321546273189622  0.6378551349623711  0.9604693590940221
  0.6249288521208133  0.7341764665944638  0.1190997541721474
  0.7590410012339744  0.6268992155644543  0.1582505164960450
  0.2328537512106463  0.2835487266007680  0.9494568084348343
  0.2958118568421204  0.2828528657877164  0.7741989320213711
  0.4227952473958790  0.1069074301533774  0.0445954776019508
  0.4878119569934159  0.1076103130091398  0.8696497934477323
  0.3236611980269917  0.0113518452182396  0.8943234309499214
  0.1994507336547660  0.1264282121927795  0.8358208876412891
  0.7210340759524929  0.1547204073293440  0.2297915835438505
  0.6756616745348173  0.9873901088412960  0.2188664025951910
  0.9451584812829505  0.8165747386327270  0.1527747935656995
  0.1405991191093924  0.7003293788101471  0.2282677154676363
  0.2039771236102946  0.6058158317162722  0.7687097785113812
  0.2555904630040685  0.7679908170302920  0.7896322742829982
  0.9973424673978873  0.9642522544022208  0.8277143525251071
  0.8036355710608795  0.0730267240032535  0.7404281631985213
  0.9705276508026083  0.4750978093319784  0.8551986155006100
  0.0018945169564055  0.5885184975265145  0.0140640713504770
  0.8868289538372417  0.5386847374270739  0.4296663005904540
  0.8538910605079724  0.3627788138624413  0.4376877872501724
  0.3871985336649740  0.7099618830018896  0.4305172259664489
  0.5554240185929876  0.7770175422176882  0.4094070090738743
  0.7387696669225807  0.8262022641044925  0.8665748747705907
  0.6569359386066397  0.7491637214355367  0.7055035504123880
  0.7565915596382640  0.4246594983874087  0.7337908935606964
  0.5705832219076371  0.5666947009058948  0.6701905358133986
  0.5651154018107504  0.3609400608951681  0.4454008022704805
  0.3710938182844174  0.4883764085718362  0.3827600868885409
  0.1703971536896393  0.3551157289644271  0.5011554873016135
  0.1059720573742897  0.1925971058538681  0.5436811497949474
 -0.0270136016321307  0.1564391110784286  0.0322205899545460
  0.0143710038178860  0.2933315183706797  0.1440133356814919
  0.2872414827770320  0.0301894337424853  0.3026447539640838
  0.2018241329121492  0.9381413298058213  0.1640031829780479
  0.3946045722182586  0.9638020858776301  0.6002533619109112
  0.5599609667426335  0.0351362871136068  0.5793418739073849
  0.4318347652178143  0.4221150472176504  0.7864635645584799
  0.6023445431964130  0.2670375429212151  0.8721306293520912
  0.2675911504743952  0.3978558756605975  0.1706233217211121
  0.4199433577326009  0.2342297094473661  0.2802932346369820
  0.9673588588509330  0.9854231710498119  0.5701200697953556
  0.1175689039103717  0.7783554444235465  0.6092910546246851
  0.9819951448801794  0.7802650113477507  0.4099460732004096
  0.8205071534798047  0.9829350861021358  0.3853337346738421
  0.7346960057644149  0.0445476884824978  0.2711493455272484
  0.0265264284984249  0.7635864978371387  0.2523723154872889
  0.1970766622356587  0.7145631244087475  0.7298631108152770
  0.9188972336606942  0.0099389780251449  0.7234507468317362
  0.5467902745870129  0.4919263378738145  0.2122389144422597
  0.5871929789472011  0.7389967854041137  0.9612557947600446
  0.8061406004714962  0.5645095640829423  0.0204837445518240
  0.9365037594441945  0.5398896830677747  0.9612711186046614
  0.7332726856954501  0.5326370523869578  0.2807338295368054
  0.8352087951370424  0.4714403762744815  0.3900837695406345
  0.5116526240893626  0.7107153436205227  0.2040914449479895
  0.4831929502132397  0.7326764140016951  0.3609307773371273
  0.6669614707492512  0.7722677467303896  0.8360470065405617
  0.6286503636673820  0.5262353252651147  0.9243242566030768
  0.6544211535402873  0.5056138911520203  0.7610882042857345
  0.4888864194090176  0.4440388286334871  0.3610299768213480
  0.3335918082908572  0.2274721560153091  0.0590388415996199
  0.4447475921372386  0.0201768988898826  0.8109218848893355
  0.2454640158119423  0.2042105108799091  0.7071941589614619
  0.1651666231538380  0.2569052104289138  0.5738126921075357
  0.1523226147727865  0.2066929217469916  0.9551077614908868
  0.0385380896353350  0.2196763385657920  0.0490984974187376
  0.3573775639538004  0.0148574902184309  0.0513496066399831
  0.2759658883470596  0.9939670549823558  0.1815000743021321
  0.4676274684667294  0.0064893468846422  0.6497994685772172
  0.4380260947220230  0.2300288526626234  0.7767621456256733
  0.4953136714962910  0.3128657704535001  0.8151890920544898
  0.3404111684214210  0.2913526686664401  0.1811027593881744
  0.1298564355484997  0.9182907774739643  0.4238378276378178
  0.1676141397741928  0.9305880192521212  0.6138879271463624
  0.0022497283560285  0.6633105912230277  0.6266187548143747
  0.1398382618417947  0.6309357426249264  0.4871508064488942
  0.8231888803872873  0.8357769148815793  0.5663994064867185
  0.7801775336954262  0.8261329813485917  0.3782843878913530
  0.9535132349548047  0.0822570184006198  0.3410967081288539
  0.8183980788825478  0.1376959869592717  0.4775447201119437
  0.7278367958860598  0.3585051283379002  0.2557366546855321
  0.3736773046448884  0.6334237374775732  0.1533087234689314
  0.4540142415507708  0.6677417036515966  0.8786347233830279
  0.6314061400847228  0.8215759097268682  0.1364435368959509
  0.8304655842075269  0.6629908780303285  0.1903173371632778
  0.8033091073068681  0.3913309580334953  0.9838321303068119
  0.1769012830982730  0.3758697273014238  0.9735314447360237
  0.4951960157488240  0.0793385079215553  0.1336386697492548
  0.5939718521859350  0.0804075599368867  0.8667505320328595
  0.3084577863226943  0.9254858831858295  0.8866181033306428
  0.1234827788880230  0.0961535969223496  0.8033228411656164
  0.2703901623879604  0.3748679130716787  0.7049365363274563
