H14 C10 N20 O20                         
   1.00000000000000     
     8.1406098488324456    0.1044295573685080    0.0069668546642299
     0.9506557207725036    8.4017673314321364   -0.0209945143439436
    -0.1774042468853110   -1.3416464007932101    9.2196058840097379
   C    O    N    H 
    10    20    20    14
Direct
  0.2570884357127881  0.2431120187213103  0.3269502068976954
  0.4826549102810088  0.2393708408199147  0.1418615772069589
  0.7040344142122019  0.1002198694935026  0.3000640787208983
  0.4794228953934247  0.1086705445287998  0.4860283749854345
  0.8355323829949860  0.5678298072707677  0.8018771451903480
  0.9844557128653225  0.5237750373783316  0.9062202419805913
  0.0290974384772569  0.6671223072209853  0.6435550319440833
  0.1777507349556803  0.6223767916411568  0.7485393788435991
  0.0210419339400326  0.8747973390164059  0.8516378480086525
  0.8949824665139350  0.8080366599008930  0.9573675660594395
  0.4117643319420294  0.8356511490685994  0.3425498279805748
  0.6198593970738555  0.8158492172813085  0.1887399370023451
  0.9222441904946163  0.1814971629707428  0.1326677087408395
  0.7387277428464618  0.3101995734013925 -0.0008004880985287
  0.5499317965745452  0.5096725278696156  0.2904214160511473
  0.3516522975069577  0.5189355972014139  0.4518903535585629
  0.0448558418790258  0.1266461544162743  0.4652170873400120
  0.2215532984977162  0.0325099249320438  0.6247964658253423
  0.1058650369737065  0.5347438438366385  0.1787618378159087
  0.0122366962765438  0.7928837800842747  0.2396045404777895
  0.5907107996368237  0.9531622412667728  0.8780452305120381
  0.5564898498314940  0.7381875553906568  0.7180948894345579
  0.8163878900359097  0.8673328167095123  0.5114949851420960
  0.8209328484909798  0.0697805137180034  0.6920859257653078
  0.2588056365757109  0.9114762389206290  0.0530457250140909
  0.3911329227941315  0.6702375349106978  0.9710945649155407
  0.2076438740640351  0.2616138490502452  0.9103011363145589
  0.3876730535212902  0.3520290867432472  0.7785872399275436
  0.7152653139195675  0.4075938175878062  0.5607890541022694
  0.8917722529971795  0.4869450455059982  0.4180574920492406
  0.3073796201895270  0.1709478637090459  0.4590576040160350
  0.3923568806472153  0.3105149174082162  0.2722657144415751
  0.6545227098150475  0.1784162794061709  0.1706621705857538
  0.5652560149784993  0.0376932574293944  0.3532279403455928
  0.5310868317153200  0.8842810454052161  0.2910140442743881
  0.7772099400609128  0.2279935680414951  0.0979829038420802
  0.4332190047257859  0.4578173137129445  0.3422837145330992
  0.1855423655149150  0.1041983044119141  0.5191141062053564
  0.9003115141160855  0.5670170452511765  0.6584111998393819
  0.1818104893858183  0.7769234296874505  0.8446199704178108
  0.9788345792777213  0.6690192923744968  0.0130261265101922
  0.0346756004614444  0.6660825644977894  0.1549705677512945
  0.7685695054385792  0.7289600106446329  0.8721239059908987
  0.6294164710594856  0.8130182355122718  0.8189283650267437
  0.9764822415458807  0.8351876572501535  0.7014800123642188
  0.8635220798480773  0.9316644802274731  0.6305295845787349
  0.2841687157806301  0.7863494965199527  0.9648691187142675
  0.1362321380422234  0.4946052564364222  0.8231901481183114
  0.2537405133027766  0.3597193014345251  0.8393690078268435
  0.8299862578783855  0.4821333108217690  0.5362153642439372
  0.2189487978551852  0.1510281387910020  0.2415452167162404
  0.1514178271968048  0.3357609805007802  0.3530694342694144
  0.4879772707026782  0.3271168963199155  0.0673106286619216
  0.4168395612418689  0.1408139474984176  0.0892786884676988
  0.7455650289079085  0.1894213582608863  0.3861543898787357
  0.8067150259612094  0.0049593161037928  0.2720368284597144
  0.4753174842648361  0.0205273537914036  0.5607729519286847
  0.5471666413152817  0.2055609915583821  0.5382711410592497
  0.7432306735564174  0.4835464227800766  0.7960901308803728
  0.0675518721779057  0.6521822651795323  0.5299071312965037
  0.2949153556711579  0.5846604703397306  0.6906082088347113
  0.0298858709560884  0.0032519824959798  0.8833294000754390
  0.8427993819261318  0.9017252526885957  0.0430076646413613
  0.9674059072029578  0.4177821236510467  0.9564173614944961
 
  0.00000000E+00  0.00000000E+00  0.00000000E+00
  0.00000000E+00  0.00000000E+00  0.00000000E+00
  0.00000000E+00  0.00000000E+00  0.00000000E+00
  0.00000000E+00  0.00000000E+00  0.00000000E+00
  0.00000000E+00  0.00000000E+00  0.00000000E+00
  0.00000000E+00  0.00000000E+00  0.00000000E+00
  0.00000000E+00  0.00000000E+00  0.00000000E+00
  0.00000000E+00  0.00000000E+00  0.00000000E+00
  0.00000000E+00  0.00000000E+00  0.00000000E+00
  0.00000000E+00  0.00000000E+00  0.00000000E+00
  0.00000000E+00  0.00000000E+00  0.00000000E+00
  0.00000000E+00  0.00000000E+00  0.00000000E+00
  0.00000000E+00  0.00000000E+00  0.00000000E+00
  0.00000000E+00  0.00000000E+00  0.00000000E+00
  0.00000000E+00  0.00000000E+00  0.00000000E+00
  0.00000000E+00  0.00000000E+00  0.00000000E+00
  0.00000000E+00  0.00000000E+00  0.00000000E+00
  0.00000000E+00  0.00000000E+00  0.00000000E+00
  0.00000000E+00  0.00000000E+00  0.00000000E+00
  0.00000000E+00  0.00000000E+00  0.00000000E+00
  0.00000000E+00  0.00000000E+00  0.00000000E+00
  0.00000000E+00  0.00000000E+00  0.00000000E+00
  0.00000000E+00  0.00000000E+00  0.00000000E+00
  0.00000000E+00  0.00000000E+00  0.00000000E+00
  0.00000000E+00  0.00000000E+00  0.00000000E+00
  0.00000000E+00  0.00000000E+00  0.00000000E+00
  0.00000000E+00  0.00000000E+00  0.00000000E+00
  0.00000000E+00  0.00000000E+00  0.00000000E+00
  0.00000000E+00  0.00000000E+00  0.00000000E+00
  0.00000000E+00  0.00000000E+00  0.00000000E+00
  0.00000000E+00  0.00000000E+00  0.00000000E+00
  0.00000000E+00  0.00000000E+00  0.00000000E+00
  0.00000000E+00  0.00000000E+00  0.00000000E+00
  0.00000000E+00  0.00000000E+00  0.00000000E+00
  0.00000000E+00  0.00000000E+00  0.00000000E+00
  0.00000000E+00  0.00000000E+00  0.00000000E+00
  0.00000000E+00  0.00000000E+00  0.00000000E+00
  0.00000000E+00  0.00000000E+00  0.00000000E+00
  0.00000000E+00  0.00000000E+00  0.00000000E+00
  0.00000000E+00  0.00000000E+00  0.00000000E+00
  0.00000000E+00  0.00000000E+00  0.00000000E+00
  0.00000000E+00  0.00000000E+00  0.00000000E+00
  0.00000000E+00  0.00000000E+00  0.00000000E+00
  0.00000000E+00  0.00000000E+00  0.00000000E+00
  0.00000000E+00  0.00000000E+00  0.00000000E+00
  0.00000000E+00  0.00000000E+00  0.00000000E+00
  0.00000000E+00  0.00000000E+00  0.00000000E+00
  0.00000000E+00  0.00000000E+00  0.00000000E+00
  0.00000000E+00  0.00000000E+00  0.00000000E+00
  0.00000000E+00  0.00000000E+00  0.00000000E+00
  0.00000000E+00  0.00000000E+00  0.00000000E+00
  0.00000000E+00  0.00000000E+00  0.00000000E+00
  0.00000000E+00  0.00000000E+00  0.00000000E+00
  0.00000000E+00  0.00000000E+00  0.00000000E+00
  0.00000000E+00  0.00000000E+00  0.00000000E+00
  0.00000000E+00  0.00000000E+00  0.00000000E+00
  0.00000000E+00  0.00000000E+00  0.00000000E+00
  0.00000000E+00  0.00000000E+00  0.00000000E+00
  0.00000000E+00  0.00000000E+00  0.00000000E+00
  0.00000000E+00  0.00000000E+00  0.00000000E+00
  0.00000000E+00  0.00000000E+00  0.00000000E+00
  0.00000000E+00  0.00000000E+00  0.00000000E+00
  0.00000000E+00  0.00000000E+00  0.00000000E+00
  0.00000000E+00  0.00000000E+00  0.00000000E+00
